ATOMIC_SPECIES
Fe  55.845        Fe.upf
P   30.973761998  P.upf
O   15.999        O.upf

NUMERICAL_ORBITAL
Fe_gga_7au_100Ry_4s2p2d1f.orb
P_gga_7au_100Ry_2s2p1d.orb
O_gga_7au_100Ry_2s2p1d.orb

LATTICE_CONSTANT
1.889726

LATTICE_VECTORS
2.5245570000      -4.372745000      -0.000106000      
2.5246160000      4.3727800000      0.0001010000      
-0.000009000      0.0002750000      11.272368000      

ATOMIC_POSITIONS
Cartesian

Fe
0.0000000000
3
2.7372820000 0.0000390000 0.0000220000 1 1 1 mag 0.0 
1.1558290000 2.0021410000 7.5148830000 1 1 1 mag 0.0 
1.1557970000 -2.001834000 3.7574460000 1 1 1 mag 0.0 

P
0.0000000000
3
2.7421110000 0.0001280000 5.6362000000 1 1 1 mag 0.0 
3.6780400000 -2.374515000 1.8786720000 1 1 1 mag 0.0 
3.6781450000 2.3746990000 9.3936500000 1 1 1 mag 0.0 

O
0.0000000000
12
1.7028770000 0.6472910000 1.4136880000 1 1 1 mag 0.0 
3.6373850000 1.1512770000 5.1710060000 1 1 1 mag 0.0 
2.2336710000 2.5744280000 8.9287430000 1 1 1 mag 0.0 
3.6372320000 -1.150952000 6.1011580000 1 1 1 mag 0.0 
2.2335880000 -2.574206000 2.3437130000 1 1 1 mag 0.0 
1.7028650000 -0.646904000 9.8587790000 1 1 1 mag 0.0 
1.8518320000 -0.434005000 4.4662030000 1 1 1 mag 0.0 
1.9747830000 -2.551840000 8.2239240000 1 1 1 mag 0.0 
3.7472440000 -1.386384000 0.7091710000 1 1 1 mag 0.0 
1.9747280000 2.5521260000 3.0487500000 1 1 1 mag 0.0 
3.7473260000 1.3867570000 10.563376000 1 1 1 mag 0.0 
1.8517420000 0.4344240000 6.8057060000 1 1 1 mag 0.0 

