ATOMIC_SPECIES
Ca  40.078        Ca.upf
Au  196.966569    Au.upf

NUMERICAL_ORBITAL
Ca_gga_7au_100Ry_4s2p1d.orb
Au_gga_7au_100Ry_4s2p2d1f.orb

LATTICE_CONSTANT
1.889726

LATTICE_VECTORS
4.2081420000      -0.000000000      1.8077370000      
1.7913450000      5.3995560000      1.6318470000      
-0.049808000      0.0669140000      5.9177790000      

ATOMIC_POSITIONS
Cartesian

Ca
0.0000000000
2
3.5394610000 3.8351740000 3.3643270000 1 1 1 mag 0.0 
2.4102190000 1.6312970000 5.9930360000 1 1 1 mag 0.0 

Au
0.0000000000
4
1.1934140000 1.6487110000 3.0237420000 1 1 1 mag 0.0 
4.7562660000 3.8177590000 6.3336200000 1 1 1 mag 0.0 
2.2087210000 4.8005810000 6.4620920000 1 1 1 mag 0.0 
3.7409590000 0.6658890000 2.8952710000 1 1 1 mag 0.0 

