ATOMIC_SPECIES
Ga  69.723        Ga.upf
O   15.999        O.upf

NUMERICAL_ORBITAL
Ga_gga_8au_100Ry_2s2p2d1f.orb
O_gga_7au_100Ry_2s2p1d.orb

LATTICE_CONSTANT
1.8897261258369282 

LATTICE_VECTORS
5.0557000000      0.0000000000      0.0000000000      
0.0000000000      8.6884000000      0.0000000000      
0.0000000000      0.0000000000      9.2759000000      

ATOMIC_POSITIONS
Direct

Ga
0.0000000000
17
0.0877700000 0.5788300000 0.6562500000 1 1 1 mag 0.0 
0.1666700000 0.1666700000 0.0625000000 1 1 1 mag 0.0 
0.3333300000 0.3333300000 0.3750000000 1 1 1 mag 0.0 
0.1666700000 0.1666700000 0.6250000000 1 1 1 mag 0.0 
0.8333300000 0.8333300000 0.1250000000 1 1 1 mag 0.0 
0.6666700000 0.6666700000 0.8750000000 1 1 1 mag 0.0 
0.8333300000 0.8333300000 0.5625000000 1 1 1 mag 0.0 
0.3333300000 0.0000000000 0.3750000000 1 1 1 mag 0.0 
0.6666700000 0.3333300000 0.0625000000 1 1 1 mag 0.0 
0.3333300000 0.6666700000 0.1250000000 1 1 1 mag 0.0 
0.8333300000 0.1666700000 0.3750000000 1 1 1 mag 0.0 
0.3333300000 0.6666700000 0.5625000000 1 1 1 mag 0.0 
0.6666700000 0.3333300000 0.6250000000 1 1 1 mag 0.0 
0.1666700000 0.5000000000 0.8750000000 1 1 1 mag 0.0 
0.8333300000 0.5000000000 0.3750000000 1 1 1 mag 0.0 
0.6666700000 0.0000000000 0.8750000000 1 1 1 mag 0.0 
0.1666700000 0.8333300000 0.8750000000 1 1 1 mag 0.0 

O
0.0000000000
24
0.0000000000 0.0000000000 0.0000000000 1 1 1 mag 0.0 
0.5000000000 0.5000000000 0.5000000000 1 1 1 mag 0.0 
0.0000000000 0.3333300000 0.0000000000 1 1 1 mag 0.0 
0.1666700000 0.1666700000 0.2500000000 1 1 1 mag 0.0 
0.0000000000 0.0000000000 0.5000000000 1 1 1 mag 0.0 
0.0000000000 0.6666700000 0.0000000000 1 1 1 mag 0.0 
0.5000000000 0.5000000000 0.0000000000 1 1 1 mag 0.0 
0.5000000000 0.1666700000 0.5000000000 1 1 1 mag 0.0 
0.3333300000 0.3333300000 0.7500000000 1 1 1 mag 0.0 
0.6666700000 0.6666700000 0.2500000000 1 1 1 mag 0.0 
0.5000000000 0.8333300000 0.5000000000 1 1 1 mag 0.0 
0.8333300000 0.8333300000 0.7500000000 1 1 1 mag 0.0 
0.5000000000 0.1666700000 0.0000000000 1 1 1 mag 0.0 
0.1666700000 0.5000000000 0.2500000000 1 1 1 mag 0.0 
0.0000000000 0.3333300000 0.5000000000 1 1 1 mag 0.0 
0.6666700000 0.0000000000 0.2500000000 1 1 1 mag 0.0 
0.6666700000 0.3333300000 0.2500000000 1 1 1 mag 0.0 
0.3333300000 0.0000000000 0.7500000000 1 1 1 mag 0.0 
0.0000000000 0.6666700000 0.5000000000 1 1 1 mag 0.0 
0.1666700000 0.8333300000 0.2500000000 1 1 1 mag 0.0 
0.5000000000 0.8333300000 0.0000000000 1 1 1 mag 0.0 
0.3333300000 0.6666700000 0.7500000000 1 1 1 mag 0.0 
0.8333300000 0.1666700000 0.7500000000 1 1 1 mag 0.0 
0.8333300000 0.5000000000 0.7500000000 1 1 1 mag 0.0 

